33D32945 STP File, STP Format Version 1.0

SECTION Comments
Name "cube_n15_d2_s2"
Problem "Euclidean Steiner Tree Problem"
Remark "Generated with STPGenerator. 2 dimensions."
END

SECTION Graph
Nodes 15
END

SECTION Coordinates
DD 0 0.7009763693 0.8096763491
DD 1 0.0887954552 0.1214791905
DD 2 0.3483067552 0.4219620016
DD 3 0.6998054984 0.0663843365
DD 4 0.5874823525 0.6429663057
DD 5 0.9906032789 0.2957182840
DD 6 0.2713367107 0.0696559870
DD 7 0.9496393790 0.3821752264
DD 8 0.3227100961 0.9883655114
DD 9 0.8425220697 0.2753141943
DD 10 0.5966266629 0.5564203358
DD 11 0.8479080023 0.1846236713
DD 12 0.3974697401 0.8897629529
DD 13 0.8504806137 0.3177298374
DD 14 0.1029680931 0.0449004877
END
